p td 23 69
4 1
5 3
5 2
6 1
7 3
8 4
8 7
8 2
10 1
10 6
11 2
11 4
11 10
11 6
11 7
12 9
12 7
12 3
13 12
13 11
13 8
13 3
14 4
14 10
14 11
15 14
15 1
15 4
15 6
15 5
16 15
16 7
16 8
17 10
17 13
17 8
17 3
17 16
17 1
18 9
18 2
18 6
18 11
18 14
18 10
19 13
20 15
20 13
20 6
20 3
20 7
20 17
21 5
21 3
21 16
21 9
22 10
22 4
22 2
22 8
22 21
22 5
22 13
22 11
23 20
23 3
23 19
23 13
23 18
